
Gurobi 10.0.0 (linux64) logging started Thu Nov 24 23:14:07 2022

Set parameter LogFile to value "../results/k03_n050_d015/k03_n052_d015_2-FullIns_3_BQO_log.txt"
Gurobi Optimizer version 10.0.0 build v10.0.0rc2 (linux64)

CPU model: Intel(R) Xeon(R) CPU E5-2630 v4 @ 2.20GHz, instruction set [SSE2|AVX|AVX2]
Thread count: 20 physical cores, 40 logical processors, using up to 10 threads

Optimize a model with 52 rows, 156 columns and 156 nonzeros
Model fingerprint: 0xd15ea9c9
Model has 603 quadratic objective terms
Coefficient statistics:
  Matrix range     [1e+00, 1e+00]
  Objective range  [0e+00, 0e+00]
  QObjective range [2e+00, 2e+00]
  Bounds range     [1e+00, 1e+00]
  RHS range        [1e+00, 1e+00]
Presolve removed 1 rows and 3 columns

Continuous model is non-convex -- solving as a MIP

Presolve removed 1 rows and 3 columns
Presolve time: 0.00s
Presolved: 1234 rows, 745 columns, 3109 nonzeros
Presolved model has 591 bilinear constraint(s)
Variable types: 745 continuous, 0 integer (0 binary)

Root relaxation: objective 2.010000e+02, 378 iterations, 0.01 seconds (0.01 work units)

    Nodes    |    Current Node    |     Objective Bounds      |     Work
 Expl Unexpl |  Obj  Depth IntInf | Incumbent    BestBd   Gap | It/Node Time

     0     0  201.00000    0  290          -  201.00000      -     -    0s
H    0     0                     128.5000000  201.00000  56.4%     -    0s
H    0     0                     195.5189165  201.00000  2.80%     -    0s
     0     0  201.00000    0  293  195.51892  201.00000  2.80%     -    0s
     0     0  199.00000    0  247  195.51892  199.00000  1.78%     -    0s
     0     0  199.00000    0  255  195.51892  199.00000  1.78%     -    0s
     0     0  198.25000    0  273  195.51892  198.25000  1.40%     -    0s
     0     0  198.00000    0  252  195.51892  198.00000  1.27%     -    0s
     0     0  198.00000    0  286  195.51892  198.00000  1.27%     -    0s
     0     0  198.00000    0  281  195.51892  198.00000  1.27%     -    0s
     0     0  198.00000    0  315  195.51892  198.00000  1.27%     -    0s
     0     0  198.00000    0  275  195.51892  198.00000  1.27%     -    0s
     0     2  198.00000    0  275  195.51892  198.00000  1.27%     -    0s
*   87    90              10     196.0000000  198.00000  1.02%  76.0    0s
  6942  1685  196.23068   28  417  196.00000  197.36875  0.70%  60.2    5s
 13456  1710  196.47288   27  253  196.00000  197.36875  0.70%  63.3   10s
 20581  2403  196.26784   25  334  196.00000  197.25157  0.64%  64.5   15s
 26965  2273     cutoff   30       196.00000  196.96273  0.49%  64.3   20s
 33948  1335  196.13526   32  152  196.00000  196.60742  0.31%  63.3   25s

Cutting planes:
  RLT: 50
  BQP: 65

Explored 38506 nodes (2395700 simplex iterations) in 27.96 seconds (23.28 work units)
Thread count was 10 (of 40 available processors)

Solution count 3: 196 195.519 128.5 

Optimal solution found (tolerance 0.00e+00)
Best objective 1.960000000000e+02, best bound 1.960000000000e+02, gap 0.0000%
